<number of tasks>
50

<cycle time>
1000

<order strength>
0.204


<task times>
1 116
2 354
3 130
4 227
5 214
6 59
7 139
8 575
9 271
10 69
11 170
12 45
13 43
14 586
15 262
16 185
17 566
18 265
19 159
20 248
21 300
22 26
23 597
24 54
25 193
26 99
27 90
28 119
29 110
30 566
31 161
32 40
33 115
34 545
35 513
36 501
37 143
38 166
39 242
40 137
41 223
42 150
43 179
44 520
45 203
46 98
47 153
48 281
49 485
50 55

<precedence relations>
1,10
1,13
3,38
5,8
5,12
5,24
5,40
6,9
6,11
8,16
10,14
10,15
10,17
11,17
12,42
13,31
14,21
15,20
15,36
16,18
16,19
16,22
16,23
19,27
19,29
19,43
20,24
21,25
21,28
22,28
22,30
23,26
23,33
24,32
25,31
25,33
26,35
26,36
27,45
27,47
28,34
28,37
30,32
31,40
32,39
32,41
34,42
35,43
36,38
38,45
38,47
40,44
40,48
40,49
43,46
43,50

<end>
